33D32945 STP File, STP Format Version 1.0

SECTION Comments
Name "shell_n10_d4_s18"
Problem "Euclidean Steiner Tree Problem"
Remark "Generated with STPGenerator. 4 dimensions."
END

SECTION Graph
Nodes 10
END

SECTION Coordinates
DDDD 0 -0.0890911473 -0.0326715252 -0.9419079130 -0.3221875578
DDDD 1 0.3067300599 0.8427479582 -0.2798047138 -0.3426395650
DDDD 2 0.0447234359 -0.6882873649 -0.4600918750 0.5590847737
DDDD 3 -0.8473386844 0.2576439251 0.2045433014 -0.4168918320
DDDD 4 -0.0372099153 -0.4788885640 -0.8581072735 0.1814747164
DDDD 5 0.5092245672 -0.1615732909 0.8275652412 -0.1723954276
DDDD 6 0.3641768238 -0.0614835544 -0.3067587338 0.8772081239
DDDD 7 -0.2035584876 0.5909970136 0.5775756144 0.5250646453
DDDD 8 0.0780363130 -0.4501115159 0.0464173604 -0.8883441821
DDDD 9 -0.6407465526 -0.0981359446 -0.3492515386 0.6766362055
END
